10027
8 9 83
9 7 180
7 40 64
40 18 92
18 44 75
44 31 151
31 48 50
48 35 81
35 34 15
34 33 21
33 43 80
43 15 132
15 49 130
49 19 35
19 22 94
22 29 179
29 28 260
28 38 459
38 39 43
39 37 35
37 23 45
23 47 16
47 45 125
45 4 171
4 14 25
14 42 242
42 32 365
32 5 568
5 3 70
3 24 109
24 11 245
11 27 182
27 26 110
26 25 126
25 46 186
46 12 324
12 13 206
13 51 319
51 50 625
50 10 285
10 36 835
36 0 208
0 21 46
21 30 104
30 17 80
17 2 135
2 16 217
16 20 253
20 41 290
41 6 76
6 1 45
1 8 1135
